
Gurobi 11.0.3 (linux64) logging started Tue 19 Nov 2024 12:51:01 AM CST

Set parameter LogFile to value "/home/dlcole3/graph_abstraction/hierarchical_graphs/git_storage/CS1/HP_low_reserves/gurobi_logs/serial/logfile_ST27_6.log"

Gurobi 11.0.3 (linux64) logging started Tue 19 Nov 2024 12:53:29 AM CST

Set parameter LogFile to value "/home/dlcole3/graph_abstraction/hierarchical_graphs/git_storage/CS1/HP_low_reserves/gurobi_logs/serial/logfile_ST27_6.log"
Gurobi Optimizer version 11.0.3 build v11.0.3rc0 (linux64 - "Ubuntu 18.04.3 LTS")

CPU model: Intel(R) Xeon(R) CPU E5-2698 v4 @ 2.20GHz, instruction set [SSE2|AVX|AVX2]
Thread count: 40 physical cores, 80 logical processors, using up to 20 threads

Optimize a model with 29168 rows, 50688 columns and 136175 nonzeros
Model fingerprint: 0xe47b76cf
Variable types: 46944 continuous, 3744 integer (3744 binary)
Coefficient statistics:
  Matrix range     [6e-01, 2e+04]
  Objective range  [2e+00, 2e+04]
  Bounds range     [5e-02, 2e+05]
  RHS range        [6e-04, 7e+03]
Presolve removed 14332 rows and 38650 columns
Presolve time: 0.36s
Presolved: 14836 rows, 12038 columns, 62921 nonzeros
Variable types: 9087 continuous, 2951 integer (2951 binary)
Found heuristic solution: objective 220901.30846

Root relaxation: objective 3.432335e+04, 9362 iterations, 0.48 seconds (0.36 work units)

    Nodes    |    Current Node    |     Objective Bounds      |     Work
 Expl Unexpl |  Obj  Depth IntInf | Incumbent    BestBd   Gap | It/Node Time

     0     0 34323.3493    0   28 220901.308 34323.3493  84.5%     -    1s
H    0     0                    39456.146358 34323.3493  13.0%     -    1s
H    0     0                    38631.341972 34323.3493  11.2%     -    1s
     0     0 34323.3536    0   37 38631.3420 34323.3536  11.2%     -    1s
H    0     0                    37881.918663 34329.4625  9.38%     -    2s
     0     0 34329.4625    0   24 37881.9187 34329.4625  9.38%     -    2s
     0     0 34329.4709    0   24 37881.9187 34329.4709  9.38%     -    2s
     0     0 34329.4709    0   28 37881.9187 34329.4709  9.38%     -    3s
H    0     0                    37869.606644 34329.4709  9.35%     -    3s
     0     0 34329.4709    0   33 37869.6066 34329.4709  9.35%     -    3s
     0     0 34329.4709    0   24 37869.6066 34329.4709  9.35%     -    3s
     0     0 34329.4709    0   24 37869.6066 34329.4709  9.35%     -    3s
     0     2 34329.4709    0   24 37869.6066 34329.4709  9.35%     -    4s
H   41    52                    37745.927386 34506.2778  8.58%  49.8    4s
H   42    52                    37181.521107 34506.2778  7.20%  49.5    4s
H   46    52                    35959.504298 34506.2778  4.04%  46.2    4s
    71    81 34531.2061    6   13 35959.5043 34531.2061  3.97%  41.4    5s
H   91    93                    35959.504271 34531.2061  3.97%  42.8    5s
H  635   419                    35959.504243 34531.2061  3.97%  27.2    8s
H  649   419                    35959.504210 34531.2061  3.97%  27.0    8s
   652   428 35033.4437   33   16 35959.5042 34531.2061  3.97%  26.9   10s
H  656   428                    35772.153533 34531.2061  3.47%  26.8   10s
H  660   428                    35769.724012 34531.2061  3.46%  26.7   10s
H  661   428                    35705.546552 34531.2061  3.29%  26.7   10s
H  669   428                    35705.479184 34531.2061  3.29%  26.8   10s
H 1005   533                    35604.982413 34531.2061  3.02%  25.2   11s
* 1008   533              30    35604.982372 34531.2061  3.02%  25.2   11s
* 1270   655              22    35604.982368 34531.2061  3.02%  24.5   11s
* 2173   833              21    35604.918180 34531.2061  3.02%  22.9   12s
H 3100   956                    35604.918175 34667.3134  2.63%  22.4   13s
  4197   822     cutoff   25      35604.9182 34905.0392  1.97%  23.6   16s
H 4243   822                    35604.918168 34905.0392  1.97%  23.6   16s
* 6370   466              27    35604.898490 35214.7744  1.10%  22.1   17s

Cutting planes:
  Gomory: 2

Explored 8027 nodes (175240 simplex iterations) in 18.75 seconds (15.17 work units)
Thread count was 20 (of 80 available processors)

Solution count 10: 35604.9 35604.9 35604.9 ... 35959.5

Optimal solution found (tolerance 3.00e-03)
Best objective 3.560489849111e+04, best bound 3.551914520237e+04, gap 0.2408%

User-callback calls 19684, time in user-callback 0.01 sec
